&CONTROL
                 calculation = 'scf'
                restart_mode = 'from_scratch'
                !restart_mode = 'restart'
                      !outdir = './temp/'
                  pseudo_dir = '../PP/'
                      prefix = 'PdCoO2'
                     !disk_io = 'none'
                   !verbosity = 'default'
               !etot_conv_thr = 0.0001
               !forc_conv_thr = 0.001
                       nstep = 400
                     !tstress = .true.
                     !tprnfor = .true.
/
&SYSTEM
                       ibrav = 0
                         nat = 4
                        ntyp = 3
                     ecutwfc = 60
                     !ecutrho = 480
                    !vdw_corr = 'none'
                 occupations = smearing
                    smearing = gaussian
                     degauss = 0.01
/
&ELECTRONS
            electron_maxstep = 200
                    conv_thr = 1.0D-10
              diago_thr_init = 1e-4
                 startingpot = 'atomic'
                 startingwfc = 'atomic'
                 mixing_mode = 'plain'
                 mixing_beta = 0.5
                 mixing_ndim = 8
             diagonalization = 'david'

/
!&IONS
!                ion_dynamics = 'bfgs'
!/
!&cell
!                 cell_dofree = 'ibrav'
!/

K_POINTS automatic
6  6  6   0 0 0

ATOMIC_SPECIES
    Pd    0.0000000000  Pd.pbesol-n-kjpaw_psl.1.0.0.UPF 
    Co    0.0000000000  Co.pbesol-spn-kjpaw_psl.0.3.1.UPF 
    O     0.0000000000  O.pbesol-n-kjpaw_psl.1.0.0.UPF 
CELL_PARAMETERS (angstrom)
   1.401955720   0.809419512   5.891675725
  -1.401955720   0.809419512   5.891675725
  -0.000000000  -1.618839024   5.891675725
ATOMIC_POSITIONS (crystal)
Pd       0.000000000  -0.000000000   0.000000000
Co       0.500000000   0.500000000   0.500000000
O        0.112735983   0.112735983   0.112735983
O        0.887264017   0.887264017   0.887264017
